 $rem
 JOBTYPE SP
 EXCHANGE omegaB97X-D
! CORRELATION PBE
! UNRESTRICTED TRUE
 SCF_ALGORITHM diis
 SCF_MAX_CYCLES 150
 BASIS LANL2DZ
 ECP LANL2DZ
 WAVEFUNCTION_ANALYSIS FALSE

scf_convergence 6

 molden_format true
 SYM_IGNORE TRUE
 SYMMETRY   FALSE
 $end


$molecule
0 1
