 $CONTRL NPRINT=-5 DFTTYP=wB97X-D RUNTYP=ENERGY NOSYM=1
   UNITS=ANGS PP=READ MAXIT=200 
   ICHARG=0 $END
 $SYSTEM MWORDS=500 $END
 $SCF DIIS=.TRUE. DAMP=.TRUE. DIRSCF=.TRUE. CONV=1.d-4 $END
 $PCM SOLVNT=ACETNTRL SMD=.TRUE. $END
! $PCM SOLVNT=DCM SMD=.TRUE. $END
 $FORCE TEMP=333.15 $END
 $DATA

C1
