 $molecule 
 0 1 
Pt     0.000000     0.000000     0.000000
Cl     0.000000     0.000000     2.528400
Cl     2.528400     0.000000     0.000000
Cl     0.000000     0.000000    -2.528400
Cl    -2.528015    -0.038215     0.022063
 O     0.000000     2.528400     0.000000
 O     0.000000    -2.528400     0.000000
 H    -0.950352    -2.864400     0.000000
 H     0.475176    -2.864400    -0.823029
 H    -0.950352     2.864400     0.000000
 H     0.475176     2.864400     0.823029
 $end 


 $rem 
 JOBTYPE OPT 
 EXCHANGE B3LYP 
! CORRELATION PBE 
 UNRESTRICTED TRUE 
 GEOM_OPT_MAX_CYCLES  75
 GEOM_OPT_TOL_DISPLACEMENT 2500 
 GEOM_OPT_TOL_GRADIENT     800 
 GEOM_OPT_TOL_ENERGY	5000 
 SCF_ALGORITHM diis 
 SCF_MAX_CYCLES 250 
 SCF_CONVERGENCE 4
 BASIS LANL2DZ
 ECP LANL2DZ

! SOLVENT_METHOD PCM

 WAVEFUNCTION_ANALYSIS FALSE 

 MOLDEN_FORMAT TRUE
 $end 

