 $molecule 
 -2 1 
 Pt      0.00028738     -0.00028376      0.00146561
 Cl      1.75934804     -1.73520715     -0.00495645
 Cl     -1.73799011     -1.75940351      0.01213998
 Cl     -1.76239688      1.73816701     -0.00482308
 Cl      1.74728976      1.75022860      0.01214100
 $end 


 $rem 
 JOBTYPE OPT 
 EXCHANGE B3LYP 
! CORRELATION PBE 
 UNRESTRICTED TRUE 
 GEOM_OPT_MAX_CYCLES  75
 GEOM_OPT_TOL_DISPLACEMENT 2500 
 GEOM_OPT_TOL_GRADIENT     800 
 GEOM_OPT_TOL_ENERGY	5000 
 SCF_ALGORITHM diis 
 SCF_MAX_CYCLES 250 
 SCF_CONVERGENCE 7 
 BASIS LANL2DZ
 ECP LANL2DZ

! SOLVENT_METHOD PCM

 WAVEFUNCTION_ANALYSIS FALSE 

 MOLDEN_FORMAT TRUE
 $end 

