 $molecule 
 0 1 
Pt     0.000287    -0.000284     0.001466
Cl     1.747290     1.750228     0.012141
Cl     1.759348    -1.735207    -0.004956
 N    -1.776859    -1.798738     0.012379
 N    -1.813842     1.788905    -0.005007
 H    -2.352075    -1.707703    -0.810362
 H    -1.337027    -2.705710     0.016174
 H    -2.793235     1.312792    -0.010345
 H    -1.716114     2.408168     0.885433
 H    -1.707526     2.410443    -0.892874
 H    -2.349971    -1.699794     0.835675
 $end 


 $rem 
 JOBTYPE OPT 
 EXCHANGE B3LYP 
! CORRELATION PBE 
 UNRESTRICTED TRUE 
 GEOM_OPT_MAX_CYCLES  75
 GEOM_OPT_TOL_DISPLACEMENT 2500 
 GEOM_OPT_TOL_GRADIENT     800 
 GEOM_OPT_TOL_ENERGY	5000 
 SCF_ALGORITHM diis 
 SCF_MAX_CYCLES 250 
 SCF_CONVERGENCE 7 
 BASIS LANL2DZ
 ECP LANL2DZ

! SOLVENT_METHOD PCM

 WAVEFUNCTION_ANALYSIS FALSE 

 MOLDEN_FORMAT TRUE
 $end 

